============================[ Problem Statistics ]=============================|                                                                             ||  Number of variables:          4242                                         ||  Number of clauses:            9961                                         ||  Parse time:                   0.36 s                                       ||                                                                             |============================[ Search Statistics ]==============================| Conflicts |          ORIGINAL         |          LEARNT          | Progress ||           |    Vars  Clauses Literals |    Limit  Clauses Lit/Cl |          |===============================================================================|       100 |    1591     6166   557507 |     2260      100     53 | 62.501 % |===============================================================================restarts              : 3conflicts             : 204            (378 /sec)decisions             : 471            (0.00 % random) (872 /sec)propagations          : 11661          (21594 /sec)conflict literals     : 14459          (95.13 % deleted)CPU time              : 0.54 sSATISFIABLE